mixintcount/benchmarks/random_v2l/6_6_1258.smt2
(set-logic QF_LIA)
(set-info :ran/ran2.smt2)
(set-info :smt-lib-version 2.0)
(declare-fun x1 () Int)
(declare-fun x2 () Int)
(declare-fun x3 () Int)
(declare-fun x4 () Int)
(declare-fun x5 () Int)
(declare-fun x6 () Int)
(assert (<= (+ (* (- 7) x1) (* (- 4) x2) (* 9 x3) (* (- 9) x4) (* (- 4) x5) (* (- 8) x6) ) 207))
(assert (<= (+ (* 9 x1) (* 6 x2) (* 3 x3) (* (- 2) x4) (* (- 3) x5) (* (- 6) x6) ) 810))
(assert (<= (+ (* 10 x1) (* 2 x2) (* (- 3) x3) (* (- 10) x4) (* 9 x5) (* 7 x6) ) (- 548)))
(assert (<= (+ (* 10 x1) (* (- 1) x2) (* (- 7) x3) (* 2 x4) (* (- 2) x5) (* 4 x6) ) (- 20)))
(assert (<= (+ (* (- 9) x1) (* 9 x2) (* 2 x3) (* (- 7) x4) (* (- 6) x5) (* (- 2) x6) ) (- 1200)))
(assert (<= (+ (* (- 1) x1) (* (- 1) x2) (* 8 x3) (* (- 5) x4) (* (- 6) x5) (* 0 x6) ) (- 1232)))
(assert (<= (+ (* (- 1) x1) (* 4 x2) (* 4 x3) (* (- 4) x4) (* (- 7) x5) (* (- 10) x6) ) (- 905)))
(assert (<= (+ (* (- 8) x1) (* 5 x2) (* 5 x3) (* 10 x4) (* (- 7) x5) (* 8 x6) ) 741))
(assert (<= (+ (* (- 1) x1) (* (- 1) x2) (* (- 6) x3) (* (- 2) x4) (* (- 3) x5) (* 6 x6) ) (- 134)))
(assert (<= (+ (* 0 x1) (* (- 7) x2) (* 3 x3) (* 9 x4) (* 2 x5) (* (- 2) x6) ) 445))
(assert (<= (+ (* 4 x1) (* 8 x2) (* 2 x3) (* (- 9) x4) (* 0 x5) (* (- 5) x6) ) 426))
(assert (<= (+ (* 3 x1) (* (- 7) x2) (* 4 x3) (* 3 x4) (* 6 x5) (* (- 4) x6) ) 504))
(assert (<= (+ (* 1 x1) (* 0 x2) (* 0 x3) (* 0 x4) (* 0 x5) (* 0 x6) ) 1258))
(assert (<= (+ (* (- 1) x1) (* 0 x2) (* 0 x3) (* 0 x4) (* 0 x5) (* 0 x6) ) 1258))
(assert (<= (+ (* 0 x1) (* 1 x2) (* 0 x3) (* 0 x4) (* 0 x5) (* 0 x6) ) 1258))
(assert (<= (+ (* 0 x1) (* (- 1) x2) (* 0 x3) (* 0 x4) (* 0 x5) (* 0 x6) ) 1258))
(assert (<= (+ (* 0 x1) (* 0 x2) (* 1 x3) (* 0 x4) (* 0 x5) (* 0 x6) ) 1258))
(assert (<= (+ (* 0 x1) (* 0 x2) (* (- 1) x3) (* 0 x4) (* 0 x5) (* 0 x6) ) 1258))
(assert (<= (+ (* 0 x1) (* 0 x2) (* 0 x3) (* 1 x4) (* 0 x5) (* 0 x6) ) 1258))
(assert (<= (+ (* 0 x1) (* 0 x2) (* 0 x3) (* (- 1) x4) (* 0 x5) (* 0 x6) ) 1258))
(assert (<= (+ (* 0 x1) (* 0 x2) (* 0 x3) (* 0 x4) (* 1 x5) (* 0 x6) ) 1258))
(assert (<= (+ (* 0 x1) (* 0 x2) (* 0 x3) (* 0 x4) (* (- 1) x5) (* 0 x6) ) 1258))
(assert (<= (+ (* 0 x1) (* 0 x2) (* 0 x3) (* 0 x4) (* 0 x5) (* 1 x6) ) 1258))
(assert (<= (+ (* 0 x1) (* 0 x2) (* 0 x3) (* 0 x4) (* 0 x5) (* (- 1) x6) ) 1258))
