mixintcount/benchmarks/random_v2l/6_6_1258.in
24 8
#	x1	x2	x3	x4	x5	x6;		0 = Real; 1 = Integer
	1	1	1	1	1	1
1	-7	-4	9	-9	-4	-8	207
1	9	6	3	-2	-3	-6	810
1	10	2	-3	-10	9	7	-548
1	10	-1	-7	2	-2	4	-20
1	-9	9	2	-7	-6	-2	-1200
1	-1	-1	8	-5	-6	0	-1232
1	-1	4	4	-4	-7	-10	-905
1	-8	5	5	10	-7	8	741
1	-1	-1	-6	-2	-3	6	-134
1	0	-7	3	9	2	-2	445
1	4	8	2	-9	0	-5	426
1	3	-7	4	3	6	-4	504
1	1	0	0	0	0	0	1258
1	-1	0	0	0	0	0	1258
1	0	1	0	0	0	0	1258
1	0	-1	0	0	0	0	1258
1	0	0	1	0	0	0	1258
1	0	0	-1	0	0	0	1258
1	0	0	0	1	0	0	1258
1	0	0	0	-1	0	0	1258
1	0	0	0	0	1	0	1258
1	0	0	0	0	-1	0	1258
1	0	0	0	0	0	1	1258
1	0	0	0	0	0	-1	1258
